W=5;
H=3;

MAX_TIME=6;
MAX_TRACKS=6;

TARGET=(1,5);

TRAINS=[(1,1,RIGHT),(3,3,RIGHT)];
DECOYS=[];

INIT_POS=[
(1,1,STRAIGHT_RL),
(1,5,STRAIGHT_RL),
(3,3,STRAIGHT_RL),
];
TUNNEL_PAIRS=[];

GATES=[];
ACTIVATIONS=[];

DSWITCHES=[];

STATIONS=[];
